12° run output:
{
    "Function": "ClusterB300.tsp",
    "Problem dimension": [
        291,
        196,
        77,
        201,
        57,
        258,
        166,
        46,
        29,
        153,
        103,
        34,
        161,
        63,
        187,
        58,
        189,
        285,
        67,
        264,
        28,
        200,
        279,
        115,
        18,
        237,
        22,
        194,
        82,
        116,
        79,
        100,
        298,
        222,
        289,
        87,
        284,
        5,
        287,
        139,
        21,
        282,
        169,
        31,
        160,
        110,
        245,
        295,
        3,
        23,
        243,
        225,
        241,
        185,
        234,
        230,
        134,
        19,
        259,
        206,
        8,
        135,
        191,
        32,
        37,
        184,
        85,
        51,
        183,
        242,
        170,
        202,
        83,
        278,
        106,
        164,
        72,
        2,
        98,
        97,
        219,
        12,
        127,
        137,
        7,
        265,
        297,
        156,
        254,
        263,
        104,
        186,
        9,
        93,
        162,
        261,
        124,
        152,
        274,
        40,
        151,
        240,
        99,
        212,
        168,
        17,
        280,
        48,
        154,
        180,
        42,
        1,
        268,
        175,
        167,
        195,
        15,
        60,
        199,
        56,
        33,
        69,
        35,
        66,
        221,
        277,
        44,
        92,
        81,
        211,
        288,
        123,
        207,
        105,
        45,
        179,
        208,
        13,
        61,
        129,
        131,
        47,
        128,
        172,
        41,
        112,
        217,
        52,
        71,
        203,
        108,
        232,
        197,
        253,
        78,
        238,
        281,
        255,
        90,
        262,
        227,
        126,
        62,
        24,
        270,
        176,
        266,
        271,
        182,
        213,
        130,
        70,
        74,
        59,
        121,
        293,
        16,
        25,
        257,
        102,
        49,
        252,
        181,
        269,
        136,
        260,
        117,
        231,
        224,
        94,
        91,
        267,
        43,
        6,
        173,
        233,
        146,
        215,
        272,
        20,
        214,
        192,
        88,
        174,
        296,
        159,
        178,
        27,
        276,
        84,
        68,
        138,
        223,
        158,
        292,
        144,
        239,
        107,
        283,
        198,
        119,
        171,
        141,
        11,
        294,
        247,
        250,
        55,
        118,
        39,
        95,
        236,
        101,
        209,
        80,
        210,
        142,
        249,
        65,
        140,
        205,
        248,
        216,
        26,
        109,
        177,
        145,
        299,
        73,
        155,
        89,
        218,
        188,
        149,
        147,
        76,
        125,
        256,
        193,
        163,
        113,
        75,
        204,
        132,
        96,
        286,
        246,
        4,
        165,
        148,
        54,
        228,
        273,
        0,
        120,
        244,
        190,
        133,
        10,
        143,
        251,
        150,
        86,
        235,
        290,
        226,
        30,
        122,
        229,
        275,
        64,
        53,
        50,
        111,
        38,
        220,
        14,
        157,
        114,
        36
    ],
    "Global Optimum": 0,
    "Algorithm": "Genetic algorithm",
    "Parameters": {
        "population": 30,
        "offspring": 30,
        "mutation probability": 0.0033333333333333335,
        "crossover probability": 0.9
    },
    "Fitness": 353225,
    "Solution": [
        291,
        196,
        77,
        201,
        57,
        258,
        166,
        46,
        29,
        153,
        103,
        34,
        161,
        63,
        187,
        58,
        189,
        285,
        67,
        264,
        28,
        200,
        279,
        115,
        18,
        237,
        22,
        194,
        82,
        116,
        79,
        100,
        298,
        222,
        289,
        87,
        284,
        5,
        287,
        139,
        21,
        282,
        169,
        31,
        160,
        110,
        245,
        295,
        3,
        23,
        243,
        225,
        241,
        185,
        234,
        230,
        134,
        19,
        259,
        206,
        8,
        135,
        191,
        32,
        37,
        184,
        85,
        51,
        183,
        242,
        170,
        202,
        83,
        278,
        106,
        164,
        72,
        2,
        98,
        97,
        219,
        12,
        127,
        137,
        7,
        265,
        297,
        156,
        254,
        263,
        104,
        186,
        9,
        93,
        162,
        261,
        124,
        152,
        274,
        40,
        151,
        240,
        99,
        212,
        168,
        17,
        280,
        48,
        154,
        180,
        42,
        1,
        268,
        175,
        167,
        195,
        15,
        60,
        199,
        56,
        33,
        69,
        35,
        66,
        221,
        277,
        44,
        92,
        81,
        211,
        288,
        123,
        207,
        105,
        45,
        179,
        208,
        13,
        61,
        129,
        131,
        47,
        128,
        172,
        41,
        112,
        217,
        52,
        71,
        203,
        108,
        232,
        197,
        253,
        78,
        238,
        281,
        255,
        90,
        262,
        227,
        126,
        62,
        24,
        270,
        176,
        266,
        271,
        182,
        213,
        130,
        70,
        74,
        59,
        121,
        293,
        16,
        25,
        257,
        102,
        49,
        252,
        181,
        269,
        136,
        260,
        117,
        231,
        224,
        94,
        91,
        267,
        43,
        6,
        173,
        233,
        146,
        215,
        272,
        20,
        214,
        192,
        88,
        174,
        296,
        159,
        178,
        27,
        276,
        84,
        68,
        138,
        223,
        158,
        292,
        144,
        239,
        107,
        283,
        198,
        119,
        171,
        141,
        11,
        294,
        247,
        250,
        55,
        118,
        39,
        95,
        236,
        101,
        209,
        80,
        210,
        142,
        249,
        65,
        140,
        205,
        248,
        216,
        26,
        109,
        177,
        145,
        299,
        73,
        155,
        89,
        218,
        188,
        149,
        147,
        76,
        125,
        256,
        193,
        163,
        113,
        75,
        204,
        132,
        96,
        286,
        246,
        4,
        165,
        148,
        54,
        228,
        273,
        0,
        120,
        244,
        190,
        133,
        10,
        143,
        251,
        150,
        86,
        235,
        290,
        226,
        30,
        122,
        229,
        275,
        64,
        53,
        50,
        111,
        38,
        220,
        14,
        157,
        114,
        36
    ],
    "Nb of functions evaluations": 50010,
    "Computational time in seconds": 142.93211841583252,
    "Stopping criterion in evaluations": 50000
}